data;


param d:= 100;
param r:=5;
param p:=0.500000;
param M:=1000;
param U:=
         1         1        1.156205e-01
         2         1       -9.844043e-01
         3         1       -1.726912e+00
         4         1        1.041464e+00
         5         1        1.643631e-01
         6         1        1.527677e-01
         7         1       -1.246928e+00
         8         1       -8.349184e-01
         9         1        2.800407e-01
        10         1       -2.173443e-01
        11         1        2.527081e+00
        12         1       -5.202810e-01
        13         1       -1.235407e+00
        14         1       -1.754189e-01
        15         1       -9.846771e-01
        16         1        3.677473e-01
        17         1        3.309108e-01
        18         1       -1.266980e+00
        19         1        6.124174e-01
        20         1       -3.628494e-01
        21         1        2.025403e-01
        22         1        1.881161e-01
        23         1       -8.038413e-02
        24         1       -1.259308e+00
        25         1       -1.814074e+00
        26         1       -7.854751e-01
        27         1       -6.077124e-02
        28         1        1.099498e+00
        29         1       -8.184596e-01
        30         1       -5.432759e-02
        31         1       -1.049084e+00
        32         1       -1.305636e-01
        33         1       -2.095615e-01
        34         1        7.134232e-01
        35         1        3.355138e-01
        36         1        6.692573e-01
        37         1       -6.699785e-01
        38         1       -1.887880e-01
        39         1       -2.525567e-01
        40         1       -1.183314e+00
        41         1        9.963195e-01
        42         1       -2.846650e-01
        43         1       -1.792101e+00
        44         1       -2.517403e-01
        45         1       -5.369937e-01
        46         1       -9.100794e-01
        47         1        1.014124e+00
        48         1       -9.978648e-01
        49         1       -5.144314e-01
        50         1       -8.515809e-01
        51         1       -3.301846e-01
        52         1       -5.049233e-01
        53         1       -3.260084e-01
        54         1        1.878830e+00
        55         1       -6.466786e-01
        56         1        1.087344e+00
        57         1        1.689356e-01
        58         1        1.347517e+00
        59         1       -3.297461e-01
        60         1       -1.192741e+00
        61         1       -7.923772e-01
        62         1       -4.887279e-01
        63         1       -5.989209e-01
        64         1        1.742725e+00
        65         1        5.209432e-01
        66         1       -1.403648e+00
        67         1       -1.135458e-01
        68         1        9.645247e-01
        69         1        2.907415e-01
        70         1       -7.911194e-01
        71         1        1.191467e+00
        72         1        2.710859e+00
        73         1       -2.429208e-01
        74         1        1.233996e-01
        75         1        9.788637e-01
        76         1        1.434083e-01
        77         1       -1.061289e+00
        78         1        4.108015e-01
        79         1       -2.299189e-01
        80         1       -1.715343e+00
        81         1        1.718940e+00
        82         1       -4.638044e-01
        83         1       -8.533502e-01
        84         1       -1.124270e+00
        85         1        9.257313e-01
        86         1        1.468317e+00
        87         1       -4.806296e-01
        88         1        4.800914e-01
        89         1        2.291473e+00
        90         1        6.389682e-01
        91         1       -3.690558e-01
        92         1       -3.739669e-01
        93         1        1.018757e+00
        94         1       -5.056892e-01
        95         1        1.274073e+00
        96         1        1.554425e-01
        97         1        1.877255e+00
        98         1        8.272709e-01
        99         1       -8.183360e-02
       100         1        4.697400e-01
         1         2        1.786618e-01
         2         2        1.579903e-01
         3         2       -1.898700e+00
         4         2       -5.889138e-01
         5         2       -3.302429e-02
         6         2        1.132334e+00
         7         2        2.687461e-02
         8         2        4.664157e-01
         9         2       -2.288795e-01
        10         2       -1.047167e-01
        11         2        7.050767e-01
        12         2        6.027747e-01
        13         2       -1.429914e+00
        14         2        1.145194e+00
        15         2        5.837242e-01
        16         2       -2.643115e+00
        17         2        7.012820e-01
        18         2        3.256409e-01
        19         2        8.271691e-01
        20         2        1.314864e+00
        21         2       -1.581469e+00
        22         2       -1.486421e+00
        23         2        1.251791e+00
        24         2        7.125981e-01
        25         2       -1.124023e+00
        26         2       -1.599001e+00
        27         2        8.802742e-01
        28         2        4.461288e-01
        29         2        5.669870e-01
        30         2       -6.303413e-01
        31         2        1.297967e+00
        32         2       -4.195335e-01
        33         2       -2.536073e-01
        34         2       -3.332785e-01
        35         2        3.661993e-01
        36         2       -1.571075e+00
        37         2       -9.073675e-01
        38         2        1.475413e+00
        39         2        4.480868e-01
        40         2       -1.001052e-01
        41         2       -3.558225e-01
        42         2       -1.827373e+00
        43         2        3.604277e-01
        44         2        3.135454e-01
        45         2        2.416268e-01
        46         2       -4.080540e-01
        47         2       -5.344636e-02
        48         2       -7.046860e-01
        49         2        7.711758e-01
        50         2       -2.418210e-01
        51         2        2.100557e-01
        52         2       -1.007601e+00
        53         2       -8.229196e-01
        54         2       -5.266116e-02
        55         2        1.645412e-01
        56         2       -9.644370e-01
        57         2        6.184003e-01
        58         2       -2.831866e-01
        59         2        1.038991e+00
        60         2       -1.258246e+00
        61         2        8.294604e-02
        62         2       -7.736204e-01
        63         2        7.089483e-01
        64         2       -6.086780e-01
        65         2       -1.527716e+00
        66         2       -3.031701e-01
        67         2       -8.933162e-01
        68         2        7.057211e-01
        69         2        1.014770e+00
        70         2       -3.186096e-01
        71         2        1.448574e-01
        72         2        6.026225e-01
        73         2       -9.104439e-01
        74         2       -1.197580e+00
        75         2       -9.277971e-01
        76         2       -2.838544e-01
        77         2        1.446744e+00
        78         2        6.380585e-01
        79         2        1.709770e+00
        80         2        8.999799e-01
        81         2        1.178007e-01
        82         2        1.094780e+00
        83         2        6.877358e-02
        84         2       -9.933938e-02
        85         2        1.027601e+00
        86         2       -7.278417e-01
        87         2       -5.836017e-01
        88         2        4.070056e-01
        89         2        1.803017e+00
        90         2        4.462980e-01
        91         2       -3.031025e-01
        92         2       -1.626751e+00
        93         2       -3.581341e-01
        94         2       -5.382776e-01
        95         2        1.328892e+00
        96         2       -1.187420e-01
        97         2        1.289055e-01
        98         2        3.787909e-01
        99         2       -1.695215e-01
       100         2        1.666648e+00
         1         3        2.692406e-01
         2         3       -4.873220e-01
         3         3       -1.789758e+00
         4         3        2.212682e+00
         5         3       -6.351487e-01
         6         3        4.706379e-01
         7         3        7.689998e-01
         8         3       -1.281952e+00
         9         3        2.917689e-01
        10         3        2.717909e-01
        11         3       -9.717818e-01
        12         3       -1.562548e-01
        13         3       -2.355642e-01
        14         3       -1.499308e+00
        15         3        1.055685e-01
        16         3        1.685743e+00
        17         3        7.368058e-01
        18         3        1.710552e-01
        19         3        5.728054e-01
        20         3       -5.584761e-01
        21         3        3.975388e-01
        22         3       -2.944423e-02
        23         3        7.114643e-01
        24         3       -3.401908e-01
        25         3        1.777556e-01
        26         3       -1.383160e+00
        27         3       -1.678562e+00
        28         3       -1.411696e+00
        29         3       -8.749087e-01
        30         3       -1.592784e+00
        31         3        5.703351e-01
        32         3       -8.743402e-01
        33         3        7.711231e-02
        34         3       -8.501714e-01
        35         3        6.736593e-01
        36         3       -4.267006e-01
        37         3        8.608532e-01
        38         3        9.707950e-01
        39         3        2.519550e-01
        40         3       -8.176789e-01
        41         3       -1.778244e-01
        42         3       -1.021334e+00
        43         3       -2.319793e+00
        44         3        1.210546e+00
        45         3       -2.486530e+00
        46         3        1.400277e+00
        47         3       -1.418417e+00
        48         3        6.146188e-01
        49         3       -4.372693e-01
        50         3        7.060646e-01
        51         3       -4.782653e-01
        52         3       -2.961476e-01
        53         3       -1.516234e+00
        54         3       -4.792670e-01
        55         3       -1.004216e+00
        56         3       -1.240575e+00
        57         3       -1.529234e-01
        58         3        9.433992e-01
        59         3       -1.791526e+00
        60         3        2.397687e+00
        61         3       -1.310093e+00
        62         3       -3.838615e-01
        63         3       -4.081493e-01
        64         3       -1.217384e-01
        65         3       -4.571466e-01
        66         3       -4.131571e-01
        67         3       -4.977580e-01
        68         3        3.936619e-01
        69         3        2.999077e-01
        70         3       -4.789141e-01
        71         3        3.528336e-01
        72         3       -1.196420e+00
        73         3        1.705689e-01
        74         3        7.438782e-01
        75         3       -1.442771e+00
        76         3       -6.782187e-01
        77         3       -1.030127e+00
        78         3        1.038371e+00
        79         3        1.658326e+00
        80         3        1.545946e+00
        81         3        1.551079e+00
        82         3        3.583596e-01
        83         3       -2.249368e-01
        84         3        1.085525e+00
        85         3       -6.410603e-01
        86         3       -1.729291e+00
        87         3        8.903668e-01
        88         3       -8.348337e-01
        89         3       -9.925920e-01
        90         3       -1.677448e+00
        91         3        5.797041e-01
        92         3       -3.519769e-01
        93         3       -6.966823e-01
        94         3        9.022673e-01
        95         3        5.157807e-01
        96         3        2.320563e-01
        97         3       -1.943860e-01
        98         3        1.440600e+00
        99         3       -4.803817e-01
       100         3        7.863591e-01
         1         4        1.287045e-01
         2         4        1.093745e+00
         3         4        1.600603e+00
         4         4       -9.850741e-01
         5         4       -1.045007e+00
         6         4        4.917310e-01
         7         4       -4.820891e-01
         8         4        2.625632e-01
         9         4        2.180721e+00
        10         4        1.671030e-01
        11         4        1.760249e-01
        12         4        1.598766e+00
        13         4       -2.054841e-01
        14         4        6.557648e-01
        15         4        1.056030e+00
        16         4        3.641589e-01
        17         4       -1.725392e+00
        18         4        1.385381e+00
        19         4       -1.274264e+00
        20         4        4.855181e-01
        21         4       -1.651406e+00
        22         4        4.833761e-01
        23         4        6.518792e-02
        24         4       -1.116872e+00
        25         4        4.904328e-01
        26         4       -6.105748e-01
        27         4       -1.412847e+00
        28         4        1.497208e+00
        29         4        7.166648e-01
        30         4       -4.583079e-01
        31         4        1.007808e+00
        32         4       -1.133861e+00
        33         4        4.929761e-01
        34         4       -7.531689e-01
        35         4        5.835531e-01
        36         4        1.009257e+00
        37         4        1.036375e-01
        38         4        1.594368e+00
        39         4       -1.032243e+00
        40         4       -4.647183e-01
        41         4        1.190827e+00
        42         4        1.231579e+00
        43         4        4.723945e-01
        44         4        2.077627e+00
        45         4       -5.718590e-01
        46         4       -1.239689e+00
        47         4       -9.815241e-01
        48         4        1.131290e+00
        49         4       -2.178366e-01
        50         4        8.221514e-01
        51         4       -1.555661e+00
        52         4       -4.296976e-01
        53         4        8.137244e-01
        54         4       -4.192351e-01
        55         4       -8.628532e-01
        56         4       -5.892675e-01
        57         4       -4.736466e-01
        58         4       -6.867851e-02
        59         4        2.001429e+00
        60         4       -3.670886e-01
        61         4       -6.819696e-01
        62         4       -7.388861e-01
        63         4        8.484581e-01
        64         4       -1.601452e+00
        65         4       -6.062832e-01
        66         4        7.731541e-01
        67         4        8.525519e-01
        68         4        1.184841e+00
        69         4       -4.430705e-01
        70         4        9.947103e-01
        71         4       -2.493726e-01
        72         4        1.237998e+00
        73         4       -1.436725e-01
        74         4        2.168555e-01
        75         4        6.847977e-01
        76         4        1.173475e-01
        77         4        1.203417e+00
        78         4       -1.738098e+00
        79         4       -7.597762e-01
        80         4       -1.642702e+00
        81         4        1.024285e-01
        82         4       -6.408946e-01
        83         4       -8.144470e-02
        84         4        2.774218e-01
        85         4       -3.242535e-02
        86         4        1.603766e+00
        87         4       -9.751510e-01
        88         4       -9.836028e-01
        89         4       -2.771959e-01
        90         4       -2.534821e-01
        91         4        8.166141e-02
        92         4        8.306504e-01
        93         4       -3.499740e-02
        94         4       -9.402764e-01
        95         4        8.709662e-01
        96         4       -1.964988e-01
        97         4       -1.194768e+00
        98         4       -5.790662e-01
        99         4       -4.515424e-01
       100         4        9.517766e-01
         1         5        1.849571e+00
         2         5        3.298208e-01
         3         5        1.167907e+00
         4         5       -3.138270e-02
         5         5        1.174134e+00
         6         5       -9.401398e-01
         7         5       -2.269885e+00
         8         5        1.001783e+00
         9         5       -4.720413e-01
        10         5       -1.754278e-01
        11         5        1.246047e+00
        12         5        1.072606e+00
        13         5       -1.600790e+00
        14         5        1.014231e-01
        15         5       -5.968314e-02
        16         5        1.334278e+00
        17         5        5.253958e-01
        18         5        1.853939e-01
        19         5       -2.481923e-01
        20         5       -3.964250e-02
        21         5       -1.995485e+00
        22         5       -1.797669e-01
        23         5       -1.342070e+00
        24         5        9.160142e-01
        25         5       -9.092198e-01
        26         5        7.583787e-01
        27         5        2.046314e+00
        28         5        2.573362e-01
        29         5       -4.619406e-01
        30         5        1.468515e+00
        31         5        7.135424e-01
        32         5        6.126656e-01
        33         5        1.201546e-02
        34         5       -6.997232e-01
        35         5       -1.752476e-01
        36         5       -1.041844e+00
        37         5        8.593529e-01
        38         5       -8.799943e-01
        39         5        3.884144e-01
        40         5        3.266786e-01
        41         5        6.983420e-01
        42         5       -4.371184e-01
        43         5       -1.198109e+00
        44         5        7.450625e-02
        45         5       -2.758112e+00
        46         5       -1.082409e-01
        47         5        1.290351e+00
        48         5        2.285126e+00
        49         5        2.705902e+00
        50         5        1.294916e+00
        51         5       -1.118149e+00
        52         5       -3.249982e-02
        53         5        9.960834e-01
        54         5        7.294766e-01
        55         5       -1.868547e+00
        56         5        1.261693e+00
        57         5       -1.548069e-01
        58         5       -1.398087e-01
        59         5        1.487760e+00
        60         5       -8.520227e-01
        61         5       -1.028799e+00
        62         5        6.286722e-01
        63         5       -1.744096e+00
        64         5        1.660971e+00
        65         5        7.757411e-01
        66         5        3.931249e-03
        67         5        2.445827e+00
        68         5       -2.670237e-01
        69         5        1.940537e+00
        70         5       -3.787353e-01
        71         5       -9.643673e-01
        72         5       -3.131907e+00
        73         5       -1.135253e+00
        74         5       -7.798033e-01
        75         5        4.044241e-01
        76         5        5.293508e-01
        77         5       -2.201581e-01
        78         5        4.506482e-01
        79         5        1.219080e+00
        80         5        5.406253e-01
        81         5       -3.039577e-01
        82         5       -2.111023e-01
        83         5        1.169112e-01
        84         5       -6.881530e-01
        85         5        1.915284e-01
        86         5       -1.470622e-01
        87         5       -1.596603e-01
        88         5        2.583367e+00
        89         5        2.794365e+00
        90         5        1.150104e+00
        91         5        5.019758e-01
        92         5       -3.526517e-01
        93         5        1.597202e+00
        94         5       -1.171024e-01
        95         5        2.802832e-01
        96         5       -4.399541e-02
        97         5        1.217935e+00
        98         5       -4.857100e-01
        99         5        5.020805e-01
       100         5       -1.394180e+00
;

param theta:=
    1       -1.028643e+00
    2        3.775513e-01
    3       -2.446697e+00
    4        7.138046e-01
    5       -1.093439e+00
;
param X_true:=
    1       -2.636733e+00
    2        2.634125e+00
    3        5.282063e+00
    4       -7.145695e+00
    5       -8.354120e-01
    6        4.465374e-01
    7        1.500530e+00
    8        3.289385e+00
    9        8.212163e-01
   10       -1.463664e-01
   11       -1.019908e+00
   12        1.175927e+00
   13        2.944130e+00
   14        4.598109e+00
   15        2.063875e+00
   16       -6.781509e+00
   17       -3.604458e+00
   18        1.864555e+00
   19       -2.421359e+00
   20        2.736007e+00
   21       -8.261089e-01
   22       -1.241890e-01
   23        2.269882e-01
   24        6.976212e-01
   25        2.256895e+00
   26        2.259980e+00
   27        1.290241e+00
   28        3.250827e+00
   29        4.257411e+00
   30        1.700102e+00
   31        1.370917e-01
   32        6.458223e-01
   33        2.006464e-01
   34        1.425003e+00
   35       -1.219763e+00
   36        1.640837e+00
   37       -2.823849e+00
   38        3.235551e-01
   39       -1.434415e+00
   40        2.335003e+00
   41       -5.458488e-01
   42        3.376801e+00
   43        9.298081e+00
   44       -1.219123e+00
   45        9.430048e+00
   46       -3.442295e+00
   47        3.453482e-01
   48       -2.475602e+00
   49       -1.165619e+00
   50       -1.858862e+00
   51        1.651737e+00
   52        4.143016e-01
   53        3.236552e+00
   54       -1.806881e+00
   55        4.550899e+00
   56       -2.762833e-01
   57        2.862434e-01
   58       -3.782332e+00
   59        4.831238e+00
   60       -4.445586e+00
   61        4.620919e+00
   62       -7.947744e-02
   63        4.230052e+00
   64       -4.780582e+00
   65       -1.288323e+00
   66        2.870745e+00
   67       -1.116667e+00
   68       -6.291430e-01
   69       -3.110021e+00
   70        3.090260e+00
   71       -1.072687e+00
   72        4.690226e+00
   73        7.286665e-01
   74       -1.241329e+00
   75        2.267176e+00
   76        7.509510e-01
   77        5.241075e+00
   78       -4.464608e+00
   79       -5.231599e+00
   80       -3.684025e+00
   81       -5.144018e+00
   82        1.544838e-02
   83        1.442269e+00
   84       -5.109994e-01
   85        8.109420e-01
   86        3.845371e+00
   87       -2.471108e+00
   88       -1.726991e+00
   89       -2.608569e+00
   90        2.163027e+00
   91       -1.486724e+00
   92        1.802413e+00
   93       -1.395575e+00
   94       -2.450034e+00
   95       -1.735784e+00
   96       -8.979580e-01
   97       -3.614530e+00
   98       -3.984560e+00
   99        3.862960e-01
  100        4.104061e-01
;
param X:=
    1        8.402230e-01
    2        2.634125e+00
    3        8.743243e-02
    4       -7.145695e+00
    5       -8.354120e-01
    6        4.465374e-01
    7       -5.260053e-01
    8       -5.191129e-01
    9        8.212163e-01
   10       -1.463664e-01
   11       -8.044746e-01
   12       -1.853101e-02
   13        2.248558e+00
   14        4.598109e+00
   15        2.063875e+00
   16       -6.781509e+00
   17       -3.604458e+00
   18        1.864555e+00
   19       -3.991210e-01
   20       -1.153583e+00
   21        5.902557e-01
   22       -7.676570e-01
   23        9.582956e-01
   24       -1.218749e+00
   25        2.256895e+00
   26        2.259980e+00
   27       -1.719566e-01
   28        3.250827e+00
   29       -6.222426e-01
   30        1.700102e+00
   31       -6.307337e-01
   32        6.458223e-01
   33        2.006464e-01
   34        1.425003e+00
   35       -1.219763e+00
   36        8.550844e-01
   37       -2.823849e+00
   38        3.235551e-01
   39       -1.434415e+00
   40       -5.029839e-01
   41       -5.458488e-01
   42        3.376801e+00
   43        9.298081e+00
   44       -1.219123e+00
   45        9.430048e+00
   46       -3.442295e+00
   47        1.963174e-01
   48        2.129755e-01
   49        5.419740e-01
   50       -1.247310e+00
   51        1.545706e+00
   52       -2.350085e-01
   53       -3.169053e-02
   54       -1.806881e+00
   55        3.550572e-01
   56        5.738983e-01
   57       -3.023773e-02
   58       -3.782332e+00
   59        4.831238e+00
   60        2.842765e-01
   61        9.029122e-01
   62       -7.947744e-02
   63       -9.452899e-01
   64       -4.780582e+00
   65       -4.646798e-01
   66        2.292765e+00
   67       -3.200568e-01
   68       -6.291430e-01
   69       -5.899398e-01
   70        7.310980e-01
   71       -1.072687e+00
   72        4.690226e+00
   73       -3.230911e-01
   74        1.546246e-01
   75        1.633273e-01
   76        7.509510e-01
   77        5.241075e+00
   78        2.839655e-01
   79       -5.231599e+00
   80       -3.684025e+00
   81       -5.144018e+00
   82        1.544838e-02
   83        9.442125e-01
   84       -5.109994e-01
   85        8.109420e-01
   86       -4.278820e-01
   87       -2.471108e+00
   88       -3.888986e-03
   89        1.265473e+00
   90        2.163027e+00
   91       -1.713126e+00
   92        1.802413e+00
   93        1.030799e+00
   94       -7.314685e-02
   95       -2.037333e+00
   96       -8.979580e-01
   97        5.301304e-01
   98       -3.984560e+00
   99        3.862960e-01
  100       -2.352831e-01
;
param outliervec:=
    1    1
    2    0
    3    1
    4    0
    5    0
    6    0
    7    1
    8    1
    9    0
   10    0
   11    1
   12    1
   13    1
   14    0
   15    0
   16    0
   17    0
   18    0
   19    1
   20    1
   21    1
   22    1
   23    1
   24    1
   25    0
   26    0
   27    1
   28    0
   29    1
   30    0
   31    1
   32    0
   33    0
   34    0
   35    0
   36    1
   37    0
   38    0
   39    0
   40    1
   41    0
   42    0
   43    0
   44    0
   45    0
   46    0
   47    1
   48    1
   49    1
   50    1
   51    1
   52    1
   53    1
   54    0
   55    1
   56    1
   57    1
   58    0
   59    0
   60    1
   61    1
   62    0
   63    1
   64    0
   65    1
   66    1
   67    1
   68    0
   69    1
   70    1
   71    0
   72    0
   73    1
   74    1
   75    1
   76    0
   77    0
   78    1
   79    0
   80    0
   81    0
   82    0
   83    1
   84    0
   85    0
   86    1
   87    0
   88    1
   89    1
   90    0
   91    1
   92    0
   93    1
   94    1
   95    1
   96    0
   97    1
   98    0
   99    0
  100    1
;